Route #1: 120
Route #2: 88 82 111 86 87 92 89 91 90 18 114 118 108 109 115 110 98 116
Route #3: 119
Route #4: 105 106 107 104 103 100 99 101 102 95 96 93 94 97 85 112 84 117 113 83 81
Route #5: 20 23 26 21 17 16 19 25 24 22 27 30 31 28 32 35 36 34 33 29
Route #6: 53 52 54 57 59 65 61 62 64 66 63 60 58 55 56
Route #7: 67 69 70 71 74 72 75 78 77 76 73 68 79 80
Route #8: 40 43 45 48 47 46 44 41 42 39 38 37 49 50 51
Route #9: 1 2 3 4 10 9 11 15 14 13 12 8 7 6 5
cost: 1143.2176793665483
